c description: There is a graph of 5 vertices with a 3-clique and a 6-coloring
c generator: CNFgen (0.9.0)
c copyright: (C) 2012-2020 Massimo Lauria <massimo.lauria@uniroma1.it>
c url: https://massimolauria.net/cnfgen
c
p cnf 55 248
-11 -12 0
-11 -13 0
-11 -14 0
-11 -15 0
-12 -13 0
-12 -14 0
-12 -15 0
-13 -14 0
-13 -15 0
-14 -15 0
11 12 13 14 15 0
-16 -17 0
-16 -18 0
-16 -19 0
-16 -20 0
-17 -18 0
-17 -19 0
-17 -20 0
-18 -19 0
-18 -20 0
-19 -20 0
16 17 18 19 20 0
-21 -22 0
-21 -23 0
-21 -24 0
-21 -25 0
-22 -23 0
-22 -24 0
-22 -25 0
-23 -24 0
-23 -25 0
-24 -25 0
21 22 23 24 25 0
-11 -16 0
-11 -21 0
-16 -21 0
-12 -17 0
-12 -22 0
-17 -22 0
-13 -18 0
-13 -23 0
-18 -23 0
-14 -19 0
-14 -24 0
-19 -24 0
-15 -20 0
-15 -25 0
-20 -25 0
1 -11 -17 0
1 -11 -22 0
1 -16 -12 0
1 -16 -22 0
1 -21 -12 0
1 -21 -17 0
2 -11 -18 0
2 -11 -23 0
2 -16 -13 0
2 -16 -23 0
2 -21 -13 0
2 -21 -18 0
3 -11 -19 0
3 -11 -24 0
3 -16 -14 0
3 -16 -24 0
3 -21 -14 0
3 -21 -19 0
4 -11 -20 0
4 -11 -25 0
4 -16 -15 0
4 -16 -25 0
4 -21 -15 0
4 -21 -20 0
5 -12 -18 0
5 -12 -23 0
5 -17 -13 0
5 -17 -23 0
5 -22 -13 0
5 -22 -18 0
6 -12 -19 0
6 -12 -24 0
6 -17 -14 0
6 -17 -24 0
6 -22 -14 0
6 -22 -19 0
7 -12 -20 0
7 -12 -25 0
7 -17 -15 0
7 -17 -25 0
7 -22 -15 0
7 -22 -20 0
8 -13 -19 0
8 -13 -24 0
8 -18 -14 0
8 -18 -24 0
8 -23 -14 0
8 -23 -19 0
9 -13 -20 0
9 -13 -25 0
9 -18 -15 0
9 -18 -25 0
9 -23 -15 0
9 -23 -20 0
10 -14 -20 0
10 -14 -25 0
10 -19 -15 0
10 -19 -25 0
10 -24 -15 0
10 -24 -20 0
-26 -27 0
-26 -28 0
-26 -29 0
-26 -30 0
-26 -31 0
-27 -28 0
-27 -29 0
-27 -30 0
-27 -31 0
-28 -29 0
-28 -30 0
-28 -31 0
-29 -30 0
-29 -31 0
-30 -31 0
26 27 28 29 30 31 0
-32 -33 0
-32 -34 0
-32 -35 0
-32 -36 0
-32 -37 0
-33 -34 0
-33 -35 0
-33 -36 0
-33 -37 0
-34 -35 0
-34 -36 0
-34 -37 0
-35 -36 0
-35 -37 0
-36 -37 0
32 33 34 35 36 37 0
-38 -39 0
-38 -40 0
-38 -41 0
-38 -42 0
-38 -43 0
-39 -40 0
-39 -41 0
-39 -42 0
-39 -43 0
-40 -41 0
-40 -42 0
-40 -43 0
-41 -42 0
-41 -43 0
-42 -43 0
38 39 40 41 42 43 0
-44 -45 0
-44 -46 0
-44 -47 0
-44 -48 0
-44 -49 0
-45 -46 0
-45 -47 0
-45 -48 0
-45 -49 0
-46 -47 0
-46 -48 0
-46 -49 0
-47 -48 0
-47 -49 0
-48 -49 0
44 45 46 47 48 49 0
-50 -51 0
-50 -52 0
-50 -53 0
-50 -54 0
-50 -55 0
-51 -52 0
-51 -53 0
-51 -54 0
-51 -55 0
-52 -53 0
-52 -54 0
-52 -55 0
-53 -54 0
-53 -55 0
-54 -55 0
50 51 52 53 54 55 0
-1 -26 -32 0
-1 -27 -33 0
-1 -28 -34 0
-1 -29 -35 0
-1 -30 -36 0
-1 -31 -37 0
-2 -26 -38 0
-2 -27 -39 0
-2 -28 -40 0
-2 -29 -41 0
-2 -30 -42 0
-2 -31 -43 0
-3 -26 -44 0
-3 -27 -45 0
-3 -28 -46 0
-3 -29 -47 0
-3 -30 -48 0
-3 -31 -49 0
-4 -26 -50 0
-4 -27 -51 0
-4 -28 -52 0
-4 -29 -53 0
-4 -30 -54 0
-4 -31 -55 0
-5 -32 -38 0
-5 -33 -39 0
-5 -34 -40 0
-5 -35 -41 0
-5 -36 -42 0
-5 -37 -43 0
-6 -32 -44 0
-6 -33 -45 0
-6 -34 -46 0
-6 -35 -47 0
-6 -36 -48 0
-6 -37 -49 0
-7 -32 -50 0
-7 -33 -51 0
-7 -34 -52 0
-7 -35 -53 0
-7 -36 -54 0
-7 -37 -55 0
-8 -38 -44 0
-8 -39 -45 0
-8 -40 -46 0
-8 -41 -47 0
-8 -42 -48 0
-8 -43 -49 0
-9 -38 -50 0
-9 -39 -51 0
-9 -40 -52 0
-9 -41 -53 0
-9 -42 -54 0
-9 -43 -55 0
-10 -44 -50 0
-10 -45 -51 0
-10 -46 -52 0
-10 -47 -53 0
-10 -48 -54 0
-10 -49 -55 0